benchmarks/bfuzz0/24676294622112430246223602905942431400.smt2
(set-logic QF_FP)
(declare-const x0 (_ FloatingPoint 11 53))
(declare-const x1 (_ FloatingPoint 11 53))
(declare-const x2 (_ FloatingPoint 11 53))
(declare-const x3 (_ FloatingPoint 11 53))
(declare-const x4 (_ FloatingPoint 11 53))
(declare-const x5 (_ FloatingPoint 11 53))
(declare-const x6 (_ FloatingPoint 11 53))
(declare-const x7 (_ FloatingPoint 11 53))
(declare-const x8 (_ FloatingPoint 11 53))
(declare-const x9 (_ FloatingPoint 11 53))
(declare-const x10 (_ FloatingPoint 11 53))
(declare-const x11 (_ FloatingPoint 11 53))
(declare-const x12 (_ FloatingPoint 11 53))
(declare-const x13 (_ FloatingPoint 11 53))
(declare-const x14 (_ FloatingPoint 11 53))
(declare-const x15 (_ FloatingPoint 11 53))
(declare-const x16 (_ FloatingPoint 11 53))
(declare-const x17 (_ FloatingPoint 11 53))
(declare-const x18 (_ FloatingPoint 11 53))
(declare-const x19 (_ FloatingPoint 11 53))
(declare-const x20 (_ FloatingPoint 11 53))
(declare-const x21 (_ FloatingPoint 11 53))
(declare-const x22 (_ FloatingPoint 11 53))
(declare-const x23 (_ FloatingPoint 11 53))
(declare-const x24 (_ FloatingPoint 11 53))
(declare-const x25 (_ FloatingPoint 11 53))
(assert (fp.gt (fp.neg x7) (fp.div RNE x13 x12)))
(assert (fp.lt (fp.neg x19) (fp.add RNE x6 x8)))
(assert (fp.lt (fp.sub RNE x11 x1) (fp.div RNE x22 x15)))
(assert (fp.geq (fp.mul RNE x5 x21) (fp.mul RNE x11 x7)))
(assert (fp.gt (fp.add RNE x21 x12) (fp.sub RNE x17 x13)))
(assert (fp.geq (fp.neg x4) (fp.sub RNE x22 x8)))
(assert (fp.leq (fp.div RNE x2 x16) (fp.sub RNE x18 x18)))
(assert (fp.lt (fp.neg x6) (fp.neg x5)))
(assert (fp.geq (fp.neg x25) (fp.neg x20)))
(assert (fp.geq (fp.neg x2) (fp.neg x10)))
(assert (fp.geq (fp.mul RNE x18 x14) (fp.neg x16)))
(assert (fp.leq (fp.div RNE x1 x10) (fp.div RNE x22 x23)))
(assert (fp.gt (fp.neg x5) (fp.sub RNE x21 x14)))
(assert (fp.eq (fp.sub RNE x17 x1) (fp.add RNE x14 x17)))
(assert (fp.eq (fp.div RNE x15 x17) (fp.div RNE x7 x1)))
(assert (fp.gt (fp.add RNE x13 x21) (fp.add RNE x5 x13)))
(assert (fp.eq (fp.neg x1) (fp.add RNE x10 x20)))
(check-sat)
