db/data/24676294622112430246223602905942431400.z3.out
-------------------
2500.126826578
